ITEM = _(1..40);
knapsack_n = 3;
capacities = [266, 79, 152];
profits = [872, 656, 359, 709, 219, 36, 466, 321, 561, 780, 310, 88, 694, 440, 292, 558, 680, 208, 968, 672, 617, 802, 133, 339, 367, 790, 531, 437, 990, 276, 741, 313, 331, 437, 892, 830, 128, 810, 412, 804];
weights = [92, 58, 47, 92, 37, 35, 12, 18, 58, 38, 18, 18, 10, 83, 35, 93, 19, 84, 14, 61, 34, 45, 88, 13, 43, 63, 20, 72, 45, 32, 64, 50, 98, 81, 70, 40, 66, 49, 52, 60];
